clear
echo none
#package omp 1
suffix omp

units           metal
atom_style      atomic
boundary        p p p


variable time_eq2       equal   75000
variable mytemp         equal   300.0
variable a0             equal   5.11
variable c0		equal	4.1902	
variable itemp          equal   1400.0
variable time_step      equal   0.001
timestep ${time_step}
variable c0_by_a0       equal ${c0}/${a0}
variable c0by4          equal ${c0}/4
variable threesqrth     equal sqrt(3)/2 
variable onethree       equal 1/3
variable twothree       equal 2/3
variable threefour      equal 3/4
variable x1             equal 5/6
variable onesix		equal 1/6	

lattice custom ${a0} &
	a1 0.5 -${threesqrth} 0.0 &
        a2 0.5 ${threesqrth} 0.0 &
        a3 0.0 0.0 ${c0_by_a0} &
        basis ${onethree} ${twothree} 0.25 &
        basis ${twothree} ${onethree} ${threefour} &
        basis ${x1} ${twothree} 0.25 &
        basis ${onethree} ${onesix} 0.25 &
	basis ${x1} ${onesix} 0.25 &
        basis ${onesix} ${onethree} ${threefour} &
	basis ${twothree} ${x1} ${threefour} &
        basis ${onesix} ${x1} ${threefour}


region          box block 0 3 0 3 0 3
create_box      3 box

create_atoms 3 box basis 1 3 basis 2 3 basis 3 1 basis 4 1 basis 5 1 basis 6 1 basis 7 1 basis 8 1

include potential.mod

mass 1 58.6934  # Ni
mass 2 26.9815  # Al
mass 3 101.0699 # Ru


write_data initial.lmp


group Al type 2
group Ni type 1
group Ru type 3

variable n_al equal count(Al)
variable n_ni equal count(Ni)
variable n_ru equal count(Ru)


print "***** Al atoms = ${n_al}"
print "***** Ni atoms = ${n_ni}"
print "***** Ru atoms = ${n_ru}"

minimize 0.0 1.0e-4 200000 100000
fix 1 all box/relax aniso 0.0
minimize 0.0 1.0e-5 200000 100000



compute eng_per_atom all pe/atom
compute ke_per_atom all ke/atom

variable        cohesive_energy equal "pe/atoms" 
print "Cohesive Energy (eV/atom): ${cohesive_energy}"


variable        a equal "lx/3"          # Lattice parameter is the length of the box
variable	c equal "lz/3"
variable        c_by_a equal ${c}/${a}
print "Lattice Parameter (Angstroms): ${a}"
print "c/a ratio: ${c_by_a}"



write_data D019.data
